(declare-fun temp196_1 () (_ BitVec 64))
(declare-fun temp196_2 () (_ BitVec 64))
(declare-fun extend_5422
             ()
             (Array (_ BitVec 64) (_ BitVec 64)))
(declare-fun temp196_3 () (_ BitVec 64))
(declare-fun temp196_4 () (_ BitVec 64))
(declare-fun temp196_5 () (_ BitVec 64))
(declare-fun temp196_6 () (_ BitVec 64))
(declare-fun temp196_7 () (_ BitVec 64))
(declare-fun temp196_8 () (_ BitVec 64))
(declare-fun temp196_9 () (_ BitVec 64))
(declare-fun temp196_10 () (_ BitVec 64))
(declare-fun temp196_11 () (_ BitVec 64))
(declare-fun temp196_12 () (_ BitVec 64))
(declare-fun temp196_13 () (_ BitVec 64))
(declare-fun temp196_14 () (_ BitVec 64))
(declare-fun extend_5425
             ()
             (Array (_ BitVec 64) (_ BitVec 64)))
(declare-fun temp196_15 () (_ BitVec 64))
(declare-fun temp196_16 () (_ BitVec 64))
(declare-fun temp196_17 () (_ BitVec 64))
(declare-fun temp196_18 () (_ BitVec 64))
(declare-fun temp196_19 () (_ BitVec 64))
(declare-fun temp196_20 () (_ BitVec 64))
(declare-fun temp196_21 () (_ BitVec 64))
(declare-fun temp196_22 () (_ BitVec 64))
(declare-fun temp196_23 () (_ BitVec 64))
(declare-fun temp196_24 () (_ BitVec 64))
(declare-fun temp196_25 () (_ BitVec 64))
(declare-fun temp196_26 () (_ BitVec 64))
(declare-fun temp196_27 () (_ BitVec 64))
(declare-fun temp196_28 () (_ BitVec 64))
(declare-fun temp196_29 () (_ BitVec 64))
(declare-fun temp196_30 () (_ BitVec 64))
(declare-fun temp196_31 () (_ BitVec 64))
(declare-fun temp196_32 () (_ BitVec 64))
(declare-fun temp196_33 () (_ BitVec 64))
(declare-fun temp196_34 () (_ BitVec 64))
(declare-fun temp196_35 () (_ BitVec 64))
(declare-fun temp196_36 () (_ BitVec 64))
(declare-fun temp196_37 () (_ BitVec 64))
(declare-fun var66500 () (_ BitVec 64))
(declare-fun k!0 () Bool)
(declare-fun extend_5423 () (_ BitVec 64))
(declare-fun extend_5426 () (_ BitVec 64))
(declare-fun k!1 () Bool)
(declare-fun temp196_38 () (_ BitVec 64))
(declare-fun var133870 () (_ BitVec 64))
(declare-fun var133866 () (_ BitVec 64))
(declare-fun var66555 () (_ BitVec 64))
(declare-fun temp196_39 () (_ BitVec 64))
(declare-fun temp196_40 () (_ BitVec 64))
(declare-fun temp196_41 () (_ BitVec 64))
(declare-fun ARGNAME_input_NAMEEND_NUMELEMENT () (_ BitVec 64))
(declare-fun var66641 () (_ BitVec 64))
(declare-fun temp196_42 () (_ BitVec 64))
(declare-fun temp196_43 () (_ BitVec 64))
(declare-fun var66654 () (_ BitVec 64))
(declare-fun var330558 () (_ BitVec 64))
(declare-fun temp196_44 () (_ BitVec 64))
(declare-fun ARGNAME_pos_NAMEEND () (_ BitVec 64))
(declare-fun var658269 () (_ BitVec 64))
(declare-fun temp196_45 () (_ BitVec 64))
(declare-fun temp196_47 () (_ BitVec 64))
(declare-fun temp196_46 () (_ BitVec 64))
(declare-fun temp196_48 () (_ BitVec 64))
(declare-fun var805118 () (_ BitVec 64))
(declare-fun temp196_49 () (_ BitVec 64))
(declare-fun temp196_50 () (_ BitVec 64))
(declare-fun var805137 () (_ BitVec 64))
(declare-fun var805138 () (_ BitVec 64))
(declare-fun var805106 () (_ BitVec 64))
(declare-fun var739445 () (_ BitVec 64))
(declare-fun temp196_51 () (_ BitVec 64))
(declare-fun temp196_52 () (_ BitVec 64))
(declare-fun ARGNAME_len_NAMEEND () (_ BitVec 64))
(declare-fun var936190 () (_ BitVec 64))
(declare-fun temp196_53 () (_ BitVec 64))
(declare-fun temp196_54 () (_ BitVec 64))
(declare-fun var936192 () (_ BitVec 64))
(declare-fun temp196_55 () (_ BitVec 64))
(declare-fun var936198 () (_ BitVec 64))
(declare-fun temp196_56 () (_ BitVec 64))
(declare-fun var936193 () (_ BitVec 64))
(declare-fun var936207 () (_ BitVec 64))
(declare-fun var936210 () (_ BitVec 64))
(declare-fun var936178 () (_ BitVec 64))
(declare-fun var739451 () (_ BitVec 64))
(declare-fun var739452 () (_ BitVec 64))
(declare-fun var739454 () (_ BitVec 64))
(declare-fun temp196_58 () (_ BitVec 64))
(declare-fun var739458 () (_ BitVec 64))
(declare-fun var739437 () (_ BitVec 64))
(declare-fun var658273 () (_ BitVec 64))
(declare-fun var658282 () (_ BitVec 64))
(declare-fun var658263 () (_ BitVec 64))
(declare-fun var66673 () (_ BitVec 64))
(declare-fun var66743 () (_ BitVec 64))
(declare-fun temp196_60 () (_ BitVec 64))
(declare-fun var66655 () (_ BitVec 64))
(declare-fun var66758 () (_ BitVec 64))
(assert (= temp196_1 #x0000000000000000))
(assert (= temp196_2 (select extend_5422 temp196_1)))
(assert (= temp196_3 #x0000000000000001))
(assert (= temp196_4 (select extend_5422 temp196_3)))
(assert (= temp196_5 #x0000000000000002))
(assert (= temp196_6 (select extend_5422 temp196_5)))
(assert (= temp196_7 #x0000000000000003))
(assert (= temp196_8 (select extend_5422 temp196_7)))
(assert (= temp196_9 #x0000000000000004))
(assert (= temp196_10 (select extend_5422 temp196_9)))
(assert (= temp196_11 #x0000000000000005))
(assert (= temp196_12 (select extend_5422 temp196_11)))
(assert (= temp196_13 #x0000000000000000))
(assert (= temp196_14 (select extend_5425 temp196_13)))
(assert (= temp196_15 #x0000000000000001))
(assert (= temp196_16 (select extend_5425 temp196_15)))
(assert (= temp196_17 #x0000000000000002))
(assert (= temp196_18 (select extend_5425 temp196_17)))
(assert (= temp196_19 #x0000000000000003))
(assert (= temp196_20 (select extend_5425 temp196_19)))
(assert (= temp196_21 #x0000000000000004))
(assert (= temp196_22 (select extend_5425 temp196_21)))
(assert (= temp196_23 #x0000000000000005))
(assert (= temp196_24 (select extend_5425 temp196_23)))
(assert (= temp196_25 (select extend_5425 temp196_1)))
(assert (= temp196_26 (select extend_5425 temp196_11)))
(assert (= temp196_27 (select extend_5425 temp196_3)))
(assert (= temp196_28 (select extend_5425 temp196_5)))
(assert (= temp196_29 (select extend_5425 temp196_7)))
(assert (= temp196_30 (select extend_5425 temp196_9)))
(assert (= temp196_31 (select extend_5422 temp196_13)))
(assert (= temp196_32 (select extend_5422 temp196_15)))
(assert (= temp196_33 (select extend_5422 temp196_17)))
(assert (= temp196_34 (select extend_5422 temp196_19)))
(assert (= temp196_35 (select extend_5422 temp196_21)))
(assert (= temp196_36 (select extend_5422 temp196_23)))
(assert (= var66500
   (ite (and true
             (= temp196_25 temp196_2)
             (= temp196_26 temp196_12)
             (= temp196_27 temp196_4)
             (= temp196_28 temp196_6)
             (= temp196_29 temp196_8)
             (= temp196_30 temp196_10)
             (= temp196_2 temp196_25)
             (= temp196_12 temp196_26)
             (= temp196_31 temp196_14)
             (= temp196_32 temp196_16)
             (= temp196_33 temp196_18)
             (= temp196_34 temp196_20)
             (= temp196_35 temp196_22)
             (= temp196_36 temp196_24)
             (= temp196_4 temp196_27)
             (= temp196_6 temp196_28)
             (= temp196_8 temp196_29)
             (= temp196_10 temp196_30)
             (= extend_5423 extend_5426))
        #x0000000000000001
        #x0000000000000000)))
(assert (= temp196_37 #x0000000000000001))
(assert (= var66500 temp196_37))
(assert (= temp196_38 #x0000000000000000))
(assert (= var133870
   (ite (= extend_5423 temp196_38)
        #x0000000000000001
        #x0000000000000000)))
(assert (= var133866 var133870))
(assert (= var66555 var133866))
(assert (= temp196_39 #x0000000000000001))
(assert (= var66555 temp196_39))
(assert (= temp196_40 #x0000000000000001))
(assert (= var66555 temp196_40))
(assert (= temp196_41 #x0000000000000000))
(assert (= var66641
   (ite (= ARGNAME_input_NAMEEND_NUMELEMENT temp196_41)
        #x0000000000000001
        #x0000000000000000)))
(assert (= temp196_42 #x0000000000000000))
(assert (= var66641 temp196_42))
(assert (= temp196_43 #x0000000000000000))
(assert (= var66654 temp196_43))
(assert (= var330558 var66654))
(assert (= temp196_44 #xffffffffffffffff))
(assert (= var658269
   (ite (bvsgt ARGNAME_pos_NAMEEND temp196_44)
        #x0000000000000001
        #x0000000000000000)))
(assert (= temp196_45 #x0000000000000001))
(assert (= var658269 temp196_45))
(assert (= temp196_47 #x0000000000000000))
(assert (= temp196_46 temp196_47))
(assert (= temp196_48 #x0000000000000000))
(assert (= var805118
   (ite (bvsgt ARGNAME_pos_NAMEEND temp196_48)
        #x0000000000000001
        #x0000000000000000)))
(assert (= temp196_49 #x0000000000000000))
(assert (= var805118 temp196_49))
(assert (= temp196_50 #x0000000000000000))
(assert (= var805137 temp196_50))
(assert (= var805138
   (ite (= var805137 ARGNAME_pos_NAMEEND)
        #x0000000000000001
        #x0000000000000000)))
(assert (= var805106 var805138))
(assert (= var739445 var805106))
(assert (= temp196_51 #x0000000000000001))
(assert (= var739445 temp196_51))
(assert (= temp196_52 #x0000000000000000))
(assert (= var936190
   (ite (bvsgt ARGNAME_len_NAMEEND temp196_52)
        #x0000000000000001
        #x0000000000000000)))
(assert (= temp196_53 #x0000000000000001))
(assert (= var936190 temp196_53))
(assert (= temp196_54 #x0000000000000000))
(assert (= var936192 temp196_54))
(assert (= temp196_55 #x0000000000000001))
(assert (= var936198 (bvadd temp196_46 temp196_55)))
(assert (= temp196_56 #x0000000000000001))
(assert (= var936193 (bvadd var936192 temp196_56)))
(assert (= var936207
   (ite (= var936193 ARGNAME_len_NAMEEND)
        #x0000000000000001
        #x0000000000000000)))
(assert (= var936210
   (ite (= ARGNAME_len_NAMEEND ARGNAME_len_NAMEEND)
        #x0000000000000001
        #x0000000000000000)))
(assert (= var936178 var936210))
(assert (= var739451 var936178))
(assert (= var739452 var936198))
(assert (= var739454 (bvsub var739452 temp196_46)))
(assert (= temp196_58 #x0000000000000001))
(assert (= var739458 temp196_58))
(assert (= var739437 var739458))
(assert (= var658273 var739437))
(assert (= var658282 var658273))
(assert (= var658263 var658282))
(assert (= var66673 var658263))
(assert (= var66743 var739454))
(assert (= temp196_60 #x0000000000000001))
(assert (= var66655 (bvadd var66654 temp196_60)))
(assert (= var66758
   (ite (bvslt var66655 ARGNAME_input_NAMEEND_NUMELEMENT)
        #x0000000000000001
        #x0000000000000000)))
(model-add temp196_1 () (_ BitVec 64) #x0000000000000000)
(model-add temp196_2
           ()
           (_ BitVec 64)
           (select extend_5422 #x0000000000000000))
(model-add temp196_3 () (_ BitVec 64) #x0000000000000001)
(model-add temp196_4
           ()
           (_ BitVec 64)
           (select extend_5422 #x0000000000000001))
(model-add temp196_5 () (_ BitVec 64) #x0000000000000002)
(model-add temp196_6
           ()
           (_ BitVec 64)
           (select extend_5422 #x0000000000000002))
(model-add temp196_7 () (_ BitVec 64) #x0000000000000003)
(model-add temp196_8
           ()
           (_ BitVec 64)
           (select extend_5422 #x0000000000000003))
(model-add temp196_9 () (_ BitVec 64) #x0000000000000004)
(model-add temp196_10
           ()
           (_ BitVec 64)
           (select extend_5422 #x0000000000000004))
(model-add temp196_11 () (_ BitVec 64) #x0000000000000005)
(model-add temp196_12
           ()
           (_ BitVec 64)
           (select extend_5422 #x0000000000000005))
(model-add temp196_13 () (_ BitVec 64) #x0000000000000000)
(model-add temp196_14
           ()
           (_ BitVec 64)
           (select extend_5425 #x0000000000000000))
(model-add temp196_15 () (_ BitVec 64) #x0000000000000001)
(model-add temp196_16
           ()
           (_ BitVec 64)
           (select extend_5425 #x0000000000000001))
(model-add temp196_17 () (_ BitVec 64) #x0000000000000002)
(model-add temp196_18
           ()
           (_ BitVec 64)
           (select extend_5425 #x0000000000000002))
(model-add temp196_19 () (_ BitVec 64) #x0000000000000003)
(model-add temp196_20
           ()
           (_ BitVec 64)
           (select extend_5425 #x0000000000000003))
(model-add temp196_21 () (_ BitVec 64) #x0000000000000004)
(model-add temp196_22
           ()
           (_ BitVec 64)
           (select extend_5425 #x0000000000000004))
(model-add temp196_23 () (_ BitVec 64) #x0000000000000005)
(model-add temp196_24
           ()
           (_ BitVec 64)
           (select extend_5425 #x0000000000000005))
(model-add temp196_25
           ()
           (_ BitVec 64)
           (select extend_5425 #x0000000000000000))
(model-add temp196_26
           ()
           (_ BitVec 64)
           (select extend_5425 #x0000000000000005))
(model-add temp196_27
           ()
           (_ BitVec 64)
           (select extend_5425 #x0000000000000001))
(model-add temp196_28
           ()
           (_ BitVec 64)
           (select extend_5425 #x0000000000000002))
(model-add temp196_29
           ()
           (_ BitVec 64)
           (select extend_5425 #x0000000000000003))
(model-add temp196_30
           ()
           (_ BitVec 64)
           (select extend_5425 #x0000000000000004))
(model-add temp196_31
           ()
           (_ BitVec 64)
           (select extend_5422 #x0000000000000000))
(model-add temp196_32
           ()
           (_ BitVec 64)
           (select extend_5422 #x0000000000000001))
(model-add temp196_33
           ()
           (_ BitVec 64)
           (select extend_5422 #x0000000000000002))
(model-add temp196_34
           ()
           (_ BitVec 64)
           (select extend_5422 #x0000000000000003))
(model-add temp196_35
           ()
           (_ BitVec 64)
           (select extend_5422 #x0000000000000004))
(model-add temp196_36
           ()
           (_ BitVec 64)
           (select extend_5422 #x0000000000000005))
(model-add temp196_37 () (_ BitVec 64) #x0000000000000001)
(model-add var66500 () (_ BitVec 64) #x0000000000000001)
(model-del k!0)
(model-add extend_5423
           ()
           (_ BitVec 64)
           (ite k!0
                extend_5426
                (bvnot extend_5426)))
(model-del k!1)
(model-add k!0 () Bool (not k!1))






